Route #1: 1 12 10 31 35 10 22 10 1 
Route #2: 1 38 18 5 38 16 38 13 1 
Route #3: 1 3 17 3 33 1 
Route #4: 1 6 10 11 10 39 1 
Route #5: 1 7 24 25 24 8 24 1 
Route #6: 1 3 30 21 36 4 23 28 1 
Route #7: 1 2 23 29 32 27 9 23 1 
Route #8: 1 19 26 14 26 15 1 
Cost 636.0
